# Solution for model Plasmids
# Objective value = 7.2407003435218869e+00
B0(15) 1
B1(9) 1
B2(9) 1
B3(15) 0
B4(9) 0
B5(7) 0
B6(16) 1
B7(11) 1
B8(7) 1
B9(15) 0
B10(9) 0
B11(11) 0
B12(11) 0
B13(11) 0
B14(11) 0
B15(11) 1
B16(11) 0
B17(11) 0
B18(11) 0
B19(11) 0
B20(8) 1
B21(8) 0
B22(8) 0
B23(8) 0
B24(8) 0
B25(8) 0
B26(8) 0
B27(8) 0
B28(8) 0
B29(8) 0
B30(8) 0
B31(8) 1
B32(8) 0
B33(8) 0
B34(8) 0
B35(8) 0
B36(9) 0
B37(9) 0
B38(9) 0
B39(9) 1
B40(9) 0
B41(9) 0
B42(3) 0
B43(3) 0
B44(3) 0
B45(3) 1
B46(3) 0
B47(3) 0
B48(3) 0
B49(3) 0
B50(3) 0
B51(3) 0
B52(3) 0
B53(3) 0
B54(3) 0
B55(3) 0
B56(3) 0
B57(3) 1
B58(3) 0
B59(3) 0
B60(3) 0
B61(3) 0
B62(3) 0
B63(3) 0
B64(3) 0
B65(3) 0
B66(2) 0
B67(2) 0
B68(2) 1
B69(2) 0
I70(0) 0
I71(0) 0
I72(0) 0
I73(0) 0
C74(5) 0
C75(5) 0
C76(5) 0
C77(5) 0
C78(5) 0
C79(5) 0
C80(5) 1.7300000000000004e+00
C81(5) 1.7300000000000004e+00
C82(5) 0
C83(5) 0
C84(5) 0
C85(5) 0
C86(5) 0
C87(5) 0
C88(5) 0
C89(5) 0
C90(5) 1.7300000000000004e+00
C91(5) 1.7300000000000004e+00
C92(4) 0
C93(5) 0
C94(5) 0
C95(5) 0
C96(4) 0
C97(5) 0
C98(5) 0
C99(5) 0
C100(4) 0
C101(5) 0
C102(5) 0
C103(5) 0
C104(4) 0
C105(5) 0
C106(5) 0
C107(5) 0
C108(4) 0
C109(5) 0
C110(5) 0
C111(5) 0
C112(4) 1.7300000000000004e+00
C113(5) 1.7300000000000004e+00
C114(5) 0
C115(5) 0
C116(4) 0
C117(5) 0
C118(5) 0
C119(5) 0
C120(4) 0
C121(5) 0
C122(50) 1.7300000000000004e+00
B123(2) 1
B124(2) 1
B125(2) 0
B126(2) 0
B127(2) 1
B128(2) 1
B129(2) 0
B130(2) 0
